n_res = 4;
rc = [ 0, 0, 0, 0 ];
n_tasks = 30;
d = [ 10, 9, 6, 1, 1, 10, 7, 5, 4, 9, 10, 6, 4, 7, 7, 8, 1, 4, 4, 7, 2, 1, 9, 10, 9, 10, 7, 2, 1, 3 ];
rr = [| 0, 0, 0, 0, 0, 0, 0, 0, 0, 0, 0, 0, 0, 0, 0, 0, 0, 0, 0, 0, 0, 0, 0, 0, 0, 0, 0, 0, 0, 0
      | 0, 0, 0, 0, 0, 0, 0, 0, 0, 0, 0, 0, 0, 0, 0, 0, 0, 0, 0, 0, 0, 0, 0, 0, 0, 0, 0, 0, 0, 0
      | 0, 0, 0, 0, 0, 0, 0, 0, 0, 0, 0, 0, 0, 0, 0, 0, 0, 0, 0, 0, 0, 0, 0, 0, 0, 0, 0, 0, 0, 0
      | 0, 0, 0, 0, 0, 0, 0, 0, 0, 0, 0, 0, 0, 0, 0, 0, 0, 0, 0, 0, 0, 0, 0, 0, 0, 0, 0, 0, 0, 0 |];
suc = [ { 4, 11, 15 },
       { 7 },
       { 5, 12, 21 },
       { 6, 9, 22 },
       { 8, 13, 20 },
       { 10, 12, 16 },
       { 8, 13, 15 },
       { 23 },
       { 18, 24 },
       { 28, 30 },
       { 22 },
       { 20 },
       { 14, 19, 25 },
       { 24, 26, 27 },
       { 25, 30 },
       { 17, 19, 27 },
       { 20, 26, 29 },
       { 21 },
       { 23, 29 },
       { 24, 28 },
       { 23 },
       { 25 },
       { 26 },
       { 30 },
       { 27 },
       { 28 },
       { 29 },
       {  },
       {  },
       {  } ];
